
Gurobi 8.1.1 (win64) logging started 11/28/19 09:00:53

Changed value of parameter LogFile to logs/drand/rlt/drand-07-075-0.log
   Prev: gurobi.log  Default: 
Changed value of parameter LogToConsole to 0
   Prev: 1  Min: 0  Max: 1  Default: 1
Changed value of parameter TimeLimit to 3600.0
   Prev: 1e+100  Min: 0.0  Max: 1e+100  Default: 1e+100
Optimize a model with 169855 rows, 56953 columns and 398335 nonzeros
Variable types: 0 continuous, 56953 integer (337 binary)
Coefficient statistics:
  Matrix range     [1e+00, 1e+00]
  Objective range  [1e+00, 1e+00]
  Bounds range     [1e+00, 1e+00]
  RHS range        [1e+00, 1e+00]
Presolve time: 2.01s
Presolved: 169855 rows, 56953 columns, 398335 nonzeros
Variable types: 0 continuous, 56953 integer (56953 binary)
Found heuristic solution: objective 8.0000000
Found heuristic solution: objective 7.0000000

Root simplex log...

Iteration    Objective       Primal Inf.    Dual Inf.      Time
    2667    1.2500052e+00   8.250000e+00   0.000000e+00      6s
    3347    1.2500060e+00   7.727083e+01   0.000000e+00     10s
    4917    1.2556774e+00   0.000000e+00   0.000000e+00     15s

Root relaxation: objective 1.255677e+00, 4917 iterations, 12.10 seconds
Total elapsed time = 15.52s

    Nodes    |    Current Node    |     Objective Bounds      |     Work
 Expl Unexpl |  Obj  Depth IntInf | Incumbent    BestBd   Gap | It/Node Time

     0     0    1.25568    0 2202    7.00000    1.25568  82.1%     -   20s
H    0     0                       6.0000000    1.25568  79.1%     -   29s
     0     0    1.46247    0 1367    6.00000    1.46247  75.6%     -   43s
     0     0    1.53307    0 1300    6.00000    1.53307  74.4%     -   73s
     0     0    1.53731    0 1226    6.00000    1.53731  74.4%     -  110s
     0     0    1.55701    0 1306    6.00000    1.55701  74.0%     -  116s
     0     0    1.57433    0 1254    6.00000    1.57433  73.8%     -  155s
     0     0    1.57497    0 1255    6.00000    1.57497  73.8%     -  159s
     0     0    1.58394    0 1401    6.00000    1.58394  73.6%     -  166s
     0     0    1.59449    0 1443    6.00000    1.59449  73.4%     -  186s
     0     0    1.59468    0 1370    6.00000    1.59468  73.4%     -  195s
     0     0    1.60281    0 1595    6.00000    1.60281  73.3%     -  203s
     0     0    1.60323    0 1489    6.00000    1.60323  73.3%     -  223s
     0     0    1.61210    0 1471    6.00000    1.61210  73.1%     -  234s
     0     0    1.61234    0 1463    6.00000    1.61234  73.1%     -  255s
     0     0    1.61963    0 1282    6.00000    1.61963  73.0%     -  265s
     0     0    1.61975    0 1382    6.00000    1.61975  73.0%     -  343s
     0     0    1.62760    0 1730    6.00000    1.62760  72.9%     -  356s
     0     0    1.62771    0 1707    6.00000    1.62771  72.9%     -  361s
     0     0    1.63342    0 1726    6.00000    1.63342  72.8%     -  374s
     0     0    1.63355    0 1710    6.00000    1.63355  72.8%     -  379s
     0     0    1.63846    0 1735    6.00000    1.63846  72.7%     -  393s
     0     0    1.63863    0 1739    6.00000    1.63863  72.7%     -  429s
     0     0    1.64225    0 1761    6.00000    1.64225  72.6%     -  443s
     0     0    1.64230    0 1757    6.00000    1.64230  72.6%     -  448s
     0     0    1.64587    0 1718    6.00000    1.64587  72.6%     -  461s
     0     0    1.64594    0 1735    6.00000    1.64594  72.6%     -  490s
     0     0    1.64943    0 1783    6.00000    1.64943  72.5%     -  505s
     0     0    1.65262    0 1622    6.00000    1.65262  72.5%     -  639s
     0     0    1.65276    0 1611    6.00000    1.65276  72.5%     -  646s
     0     0    1.65573    0 1692    6.00000    1.65573  72.4%     -  661s
     0     0    1.65579    0 1693    6.00000    1.65579  72.4%     -  689s
     0     0    1.65880    0 1689    6.00000    1.65880  72.4%     -  706s
     0     0    1.65883    0 1661    6.00000    1.65883  72.4%     -  713s
     0     0    1.66115    0 1700    6.00000    1.66115  72.3%     -  728s
     0     0    1.66316    0 1776    6.00000    1.66316  72.3%     -  777s
     0     0    1.66463    0 1751    6.00000    1.66463  72.3%     -  797s
     0     0    1.66467    0 1751    6.00000    1.66467  72.3%     -  836s
     0     0    1.66503    0 1814    6.00000    1.66503  72.2%     -  847s
     0     0    1.66509    0 1802    6.00000    1.66509  72.2%     -  857s
     0     0    1.66678    0 1696    6.00000    1.66678  72.2%     -  874s
     0     0    1.66771    0 1611    6.00000    1.66771  72.2%     -  898s
     0     0    1.66913    0 1695    6.00000    1.66913  72.2%     - 1038s
     0     0    1.66914    0 1693    6.00000    1.66914  72.2%     - 1050s
     0     0    1.67085    0 1659    6.00000    1.67085  72.2%     - 1067s
     0     0    1.67145    0 1827    6.00000    1.67145  72.1%     - 1093s
     0     0    1.67147    0 1824    6.00000    1.67147  72.1%     - 1103s
     0     0    1.67242    0 1695    6.00000    1.67242  72.1%     - 1119s
     0     0    1.67242    0 1695    6.00000    1.67242  72.1%     - 1120s
     0     0    1.67242    0 1695    6.00000    1.67242  72.1%     - 3600s

Cutting planes:
  Gomory: 3
  StrongCG: 1
  Zero half: 150
  Mod-K: 4

Explored 1 nodes (110697 simplex iterations) in 3600.08 seconds
Thread count was 4 (of 4 available processors)

Solution count 3: 6 7 8 

Time limit reached
Best objective 6.000000000000e+00, best bound 2.000000000000e+00, gap 66.6667%
